0 1956
1 1734
2 1688
3 1640
4 1555
5 1461
6 1453
7 1443
8 1385
9 1346
10 1312
11 1296
12 1284
13 1257
14 1222
15 1222
16 1195
17 1189
18 1150
19 1150
20 1150
21 1134
22 1130
23 1130
24 1123
25 1109
26 1100
27 1082
28 1081
29 1062
30 1024
31 1004
32 993
33 993
34 993
35 993
36 982
37 976
38 976
39 964
40 964
41 964
42 963
43 963
44 951
45 951
46 951
47 951
48 947
49 947
50 947
51 945
52 945
53 929
54 929
55 928
56 928
57 928
58 928
59 928
60 928
61 928
62 928
63 928
64 928
65 928
66 928
67 928
68 928
69 928
70 928
71 928
72 928
73 928
74 928
75 928
76 928
77 928
78 928
79 928
80 928
81 928
82 928
83 928
84 928
85 928
86 928
87 928
88 928
89 928
90 928
91 928
92 928
93 928
94 928
95 928
96 928
97 928
98 928
99 928
100 928
101 928
102 928
103 928
104 928
105 928
106 928
107 928
108 928
109 928
110 928
111 928
112 928
113 928
114 928
115 928
116 928
117 928
118 928
119 928
120 928
121 928
122 928
123 928
124 928
125 928
126 928
127 928
128 928
129 928
130 928
131 928
132 928
133 928
134 928
135 928
136 928
137 928
138 928
139 928
140 928
141 928
142 928
143 928
144 928
145 928
146 928
147 928
148 928
149 928
150 928
151 928
152 928
153 928
154 928
155 928
156 928
157 928
158 928
159 928
160 928
161 928
162 928
163 928
164 928
165 928
166 928
167 928
168 928
169 928
170 928
171 928
172 928
173 928
174 928
175 928
176 928
177 928
178 928
179 928
180 928
181 928
182 928
183 928
184 928
185 928
186 928
187 928
188 928
189 928
190 928
191 928
192 928
193 928
194 928
195 928
196 928
197 928
198 928
199 928
200 928
201 928
202 928
203 928
204 928
205 928
206 928
207 928
208 928
209 928
210 928
211 928
212 928
213 928
214 928
215 928
216 928
217 928
218 928
219 928
220 928
221 928
222 928
223 928
224 928
225 928
226 928
227 928
228 928
229 928
230 928
231 928
232 928
233 928
234 928
235 928
236 928
237 928
238 928
239 928
240 928
241 928
242 928
243 928
244 928
245 928
246 928
247 928
248 928
249 928
250 928
251 928
252 928
253 928
254 928
255 928
256 928
257 928
258 928
259 928
260 928
261 928
262 928
263 928
264 928
265 928
266 928
267 928
268 928
269 928
270 928
271 928
272 928
273 928
274 928
275 928
276 928
277 928
278 928
279 928
280 928
281 928
282 928
283 928
284 928
285 928
286 928
287 928
288 928
289 928
290 928
291 928
292 928
293 928
294 928
295 928
296 928
297 928
298 928
299 928
300 928
301 928
302 928
303 928
304 928
305 928
306 928
307 928
308 928
309 928
310 928
311 928
312 928
313 928
314 928
315 928
316 928
317 928
318 928
319 928
320 928
321 928
322 928
323 928
324 928
325 928
326 928
327 928
328 928
329 928
330 928
331 928
332 928
333 928
334 928
335 928
336 928
337 928
338 928
339 928
340 928
341 928
342 928
343 928
344 928
345 928
346 928
347 928
348 928
349 928
350 928
351 928
352 928
353 928
354 928
355 928
356 928
357 928
358 928
359 928
360 928
361 928
362 928
363 928
364 928
365 928
366 928
367 928
368 928
369 928
370 928
371 928
372 928
373 928
374 928
375 928
376 928
377 928
378 928
379 928
380 928
381 928
382 928
383 928
384 928
385 928
386 928
387 928
388 928
389 928
390 928
391 928
392 928
393 928
394 928
395 928
396 928
397 928
398 928
399 928
400 928
401 928
402 928
403 928
404 928
405 928
406 928
407 928
408 928
409 928
410 928
411 928
412 928
413 928
414 928
415 928
416 928
417 928
418 928
419 928
420 928
421 928
422 928
423 928
424 928
425 928
426 928
427 928
428 928
429 928
430 928
431 928
432 928
433 928
434 928
435 928
436 928
437 928
438 928
439 928
440 928
441 928
442 928
443 928
444 928
445 928
446 928
447 928
448 928
449 928
450 928
451 928
452 928
453 928
454 928
455 928
456 928
457 928
458 928
459 928
460 928
461 928
462 928
463 928
464 928
465 928
466 928
467 928
468 928
469 928
470 928
471 928
472 928
473 928
474 928
475 928
476 928
477 928
478 928
479 928
480 928
481 928
482 928
483 928
484 928
485 928
486 928
487 928
488 928
489 928
490 928
491 928
492 928
493 928
494 928
495 928
496 928
497 928
498 928
499 928
500 928
501 928
502 928
503 928
504 928
505 928
506 928
507 928
508 928
509 928
510 928
511 928
512 928
513 928
514 928
515 928
516 928
517 928
518 928
519 928
520 928
521 928
522 928
523 928
524 928
525 928
526 928
527 928
528 928
529 928
530 928
531 928
532 928
533 928
534 928
535 928
536 928
537 928
538 928
539 928
540 928
541 928
542 928
543 928
544 928
545 928
546 928
547 928
548 928
549 928
550 928
551 928
552 928
553 928
554 928
555 928
556 928
557 928
558 928
559 928
560 928
561 928
562 928
563 928
564 928
565 928
566 928
567 928
568 928
569 928
570 928
571 928
572 928
573 928
574 928
575 928
576 928
577 928
578 928
579 928
580 928
581 928
582 928
583 928
584 928
585 928
586 928
587 928
588 928
589 928
590 928
591 928
592 928
593 928
594 928
595 928
596 928
597 928
598 928
599 928
600 928
601 928
602 928
603 928
604 928
605 928
606 928
607 928
608 928
609 928
610 928
611 928
612 928
613 928
614 928
615 928
616 928
617 928
618 928
619 928
620 928
621 928
622 928
623 928
624 928
625 928
626 928
627 928
628 928
629 928
630 928
631 928
632 928
633 928
634 928
635 928
636 928
637 928
638 928
639 928
640 928
641 928
642 928
643 928
644 928
645 928
646 928
647 928
648 928
649 928
650 928
651 928
652 928
653 928
654 928
655 928
656 928
657 928
658 928
659 928
660 928
661 928
662 928
663 928
664 928
665 928
666 928
667 928
668 928
669 928
670 928
671 928
672 928
673 928
674 928
675 928
676 928
677 928
678 928
679 928
680 928
681 928
682 928
683 928
684 928
685 928
686 928
687 928
688 928
689 928
690 928
691 928
692 928
693 928
694 928
695 928
696 928
697 928
698 928
699 928
700 928
701 928
702 928
703 928
704 928
705 928
706 928
707 928
708 928
709 928
710 928
711 928
712 928
713 928
714 928
715 928
716 928
717 928
718 928
719 928
720 928
721 928
722 928
723 928
724 928
725 928
726 928
727 928
728 928
729 928
730 928
731 928
732 928
733 928
734 928
735 928
736 928
737 928
738 928
739 928
740 928
741 928
742 928
743 928
744 928
745 928
746 928
747 928
748 928
749 928
750 928
751 928
752 928
753 928
754 928
755 928
756 928
757 928
758 928
759 928
760 928
761 928
762 928
763 928
764 928
765 928
766 928
767 928
768 928
769 928
770 928
771 928
772 928
773 928
774 928
775 928
776 928
777 928
778 928
779 928
780 928
781 928
782 928
783 928
784 928
785 928
786 928
787 928
788 928
789 928
790 928
791 928
792 928
793 928
794 928
795 928
796 928
797 928
798 928
799 928
800 928
801 928
802 928
803 928
804 928
805 928
806 928
807 928
808 928
809 928
810 928
811 928
812 928
813 928
814 928
815 928
816 928
817 928
818 928
819 928
820 928
821 928
822 928
823 928
824 928
825 928
826 928
827 928
828 928
829 928
830 928
831 928
832 928
833 928
834 928
835 928
836 928
837 928
838 928
839 928
840 928
841 928
842 928
843 928
844 928
845 928
846 928
847 928
848 928
849 928
850 928
851 928
852 928
853 928
854 928
855 928
856 928
857 928
858 928
859 928
860 928
861 928
862 928
863 928
864 928
865 928
866 928
867 928
868 928
869 928
870 928
871 928
872 928
873 928
874 928
875 928
876 928
877 928
878 928
879 928
880 928
881 928
882 928
883 928
884 928
885 928
886 928
887 928
888 928
889 928
890 928
891 928
892 928
893 928
894 928
895 928
896 928
897 928
898 928
899 928
900 928
901 928
902 928
903 928
904 928
905 928
906 928
907 928
908 928
909 928
910 928
911 928
912 928
913 928
914 928
915 928
916 928
917 928
918 928
919 928
920 928
921 928
922 928
923 928
924 928
925 928
926 928
927 928
928 928
929 928
930 928
931 928
932 928
933 928
934 928
935 928
936 928
937 928
938 928
939 928
940 928
941 928
942 928
943 928
944 928
945 928
946 928
947 928
948 928
949 928
950 928
951 928
952 928
953 928
954 928
955 928
956 928
957 928
958 928
959 928
960 928
961 928
962 928
963 928
964 928
965 928
966 928
967 928
968 928
969 928
970 928
971 928
972 928
973 928
974 928
975 928
976 928
977 928
978 928
979 928
980 928
981 928
982 928
983 928
984 928
985 928
986 928
987 928
988 928
989 928
990 928
991 928
992 928
993 928
994 928
995 928
996 928
997 928
998 928
999 928
Best: [[27,32,20,18,29,9,19,28],
       [25],
       [8,7,4,3,24,5,12,15],
       [31,17,14,22,2,13],
       [21,6,30,23,10,16,11,26]], fitness: 928
